
******************************************************************************
This program contains Ipopt, a library for large-scale nonlinear optimization.
 Ipopt is released as open source code under the Eclipse Public License (EPL).
         For more information visit https://github.com/coin-or/Ipopt
******************************************************************************

This is Ipopt version 3.13.4, running with linear solver mumps.
NOTE: Other linear solvers might be more efficient (see Ipopt documentation).

Number of nonzeros in equality constraint Jacobian...:     2121
Number of nonzeros in inequality constraint Jacobian.:        0
Number of nonzeros in Lagrangian Hessian.............:        0

Total number of variables............................:      101
                     variables with only lower bounds:        0
                variables with lower and upper bounds:       95
                     variables with only upper bounds:        0
Total number of equality constraints.................:       21
Total number of inequality constraints...............:        0
        inequality constraints with only lower bounds:        0
   inequality constraints with lower and upper bounds:        0
        inequality constraints with only upper bounds:        0

iter    objective    inf_pr   inf_du lg(mu)  ||d||  lg(rg) alpha_du alpha_pr  ls
   0  1.0000000e+00 2.29e-01 0.00e+00   0.0 0.00e+00    -  0.00e+00 0.00e+00   0
   1  1.0000000e+00 8.60e-02 1.77e+02  -1.7 2.91e-01    -  6.79e-01 7.77e-01f  1
   2  1.0000000e+00 1.49e-01 1.88e+14  -0.4 4.20e+00    -  6.15e-01 1.47e-01f  1
   3  1.0000000e+00 4.53e-01 6.93e+14  -0.3 3.63e+00    -  1.00e+00 1.00e+00f  1
   4  1.0000000e+00 3.28e-01 1.43e+18  -0.3 4.30e-01    -  9.62e-01 1.00e+00f  1
   5  1.0000000e+00 1.58e-01 2.25e+20  -0.3 2.07e+00    -  1.75e-01 4.07e-01h  1
   6  1.0000000e+00 1.56e-01 2.26e+20  -0.3 1.17e+01    -  1.44e-01 1.64e-02h  1
   7  1.0000000e+00 1.27e-01 3.00e+20  -0.3 1.79e+01    -  1.00e+00 1.85e-01h  1
   8  1.0000000e+00 1.44e-01 7.57e+19  -0.3 5.05e+00    -  1.00e+00 7.25e-01F  1
   9  1.0000000e+00 1.43e-01 7.81e+19  -0.3 1.32e+00    -  3.37e-01 1.15e-02h  1
iter    objective    inf_pr   inf_du lg(mu)  ||d||  lg(rg) alpha_du alpha_pr  ls
  10  1.0000000e+00 1.42e-01 6.90e+19  -0.3 9.03e+00    -  5.34e-02 2.65e-03f  4
  11  1.0000000e+00 1.42e-01 1.04e+20  -0.3 8.38e+00    -  3.50e-03 2.39e-03f  4
  12  1.0000000e+00 1.42e-01 1.97e+20  -0.3 8.46e+00    -  1.06e-01 2.09e-03f  4
  13  1.0000000e+00 1.45e-01 1.05e+21  -0.3 9.73e+01    -  1.18e-02 5.37e-03h  3
